p cnf 23 13
-6 9 1 15 -2 -14 17 0
-2 -11 -12 -4 -1 -9 -8 0
-7 1 -6 -3 12 14 -5 0
-14 -1 20 -15 2 -7 -10 0
11 -2 -16 -4 10 1 -7 0
-19 1 22 21 15 -9 -13 0
-23 6 -2 -5 -4 1 -16 0
-5 9 2 8 -6 1 4 0
3 11 7 -9 18 4 2 0
-4 19 9 2 17 -21 -7 0
-9 4 16 -17 23 7 10 0
2 3 18 -1 -5 -14 -4 0
-2 14 -7 -3 -8 -9 13 0
